
        $ From http://www.csplib.org/Problems/prob009/data/helmut.pdf
        $ Problem number 122
        $ Sequence length : 25
        language ESSENCE' 1.0
        letting sizemaster be 393
        letting sizes be sequence(4,8,16,20,23,24,25,27,29,37,44,45,50,53,64,66,68,69,73,85,91,101,116,186,207)
        